(set-option :produce-models true)
(set-logic QF_UF)
(declare-fun p6() Bool)
(declare-fun p61() Bool)
(declare-fun p42() Bool)
(declare-fun p32() Bool)
(declare-fun p8() Bool)
(declare-fun p1() Bool)
(declare-fun p14() Bool)
(declare-fun p28() Bool)
(declare-fun p50() Bool)
(declare-fun p38() Bool)
(declare-fun p20() Bool)
(declare-fun p54() Bool)
(declare-fun p17() Bool)
(declare-fun p46() Bool)
(declare-fun p25() Bool)
(declare-fun p34() Bool)
(declare-fun p67() Bool)
(declare-fun p22() Bool)
(declare-fun p24() Bool)
(declare-fun p31() Bool)
(declare-fun p7() Bool)
(declare-fun p51() Bool)
(declare-fun p18() Bool)
(declare-fun p19() Bool)
(declare-fun p53() Bool)
(declare-fun p16() Bool)
(declare-fun p49() Bool)
(declare-fun p26() Bool)
(declare-fun p55() Bool)
(declare-fun p27() Bool)
(declare-fun p5() Bool)
(declare-fun p3() Bool)
(declare-fun p35() Bool)
(declare-fun p23() Bool)
(declare-fun p9() Bool)
(declare-fun p40() Bool)
(declare-fun p58() Bool)
(declare-fun p43() Bool)
(declare-fun p39() Bool)
(declare-fun p69() Bool)
(declare-fun p30() Bool)
(declare-fun p44() Bool)
(declare-fun p21() Bool)
(declare-fun p59() Bool)
(declare-fun p57() Bool)
(declare-fun p36() Bool)
(declare-fun p0() Bool)
(declare-fun p60() Bool)
(declare-fun p41() Bool)
(declare-fun p2() Bool)
(declare-fun p47() Bool)
(declare-fun p11() Bool)
(declare-fun p64() Bool)
(declare-fun p4() Bool)
(declare-fun p45() Bool)
(declare-fun p10() Bool)
(declare-fun p15() Bool)
(declare-fun p66() Bool)
(declare-fun p65() Bool)
(declare-fun p12() Bool)
(declare-fun p33() Bool)
(declare-fun p29() Bool)
(declare-fun p62() Bool)
(declare-fun p63() Bool)
(declare-fun p48() Bool)
(declare-fun p52() Bool)
(declare-fun p56() Bool)
(declare-fun p13() Bool)
(declare-fun p68() Bool)
(declare-fun p37() Bool)
(assert
(and (or (not p6) p61 p42) (or (not p32) p8 (not p6)) (or p1 (not p32) (not p14)) (or (not p28) (not p50) p42) (or (not p38) (not p20) p54) (or p17 (not p46) (not p25)) (or p34 (not p67) p28) (or (not p22) (not p28) (not p24)) (or (not p31) (not p7) (not p17)) (or p50 p6 (not p51)) (or p18 (not p19) p53) (or p38 (not p16) (not p49)) (or p26 (not p55) p27) (or (not p8) p25 p5) (or p3 p19 (not p26)) (or (not p35) (not p27) (not p23)) (or (not p9) (not p25) (not p49)) (or (not p14) p40 p58) (or p43 (not p39) p58) (or (not p69) (not p24) (not p30)) (or p44 p8 (not p21)) (or p20 p28 p59) (or p57 (not p61) p67) (or p58 (not p25) p34) (or p36 (not p57) p30) (or (not p31) p20 p0) (or (not p14) p60 (not p57)) (or (not p60) p58 (not p1)) (or (not p6) (not p41) p43) (or (not p57) p2 p32) (or (not p1) p25 (not p47)) (or (not p1) (not p50) (not p23)) (or p30 p67 p11) (or (not p23) p64 p11) (or (not p28) (not p69) (not p4)) (or (not p61) p2 p19) (or p40 (not p22) p25) (or (not p38) (not p45) (not p51)) (or p10 p58 p15) (or (not p69) p66 (not p30)) (or p57 (not p47) p5) (or p49 (not p10) (not p66)) (or p39 (not p60) p7) (or p59 (not p65) p1) (or (not p31) (not p64) p57) (or (not p64) (not p59) (not p22)) (or p23 p21 (not p12)) (or p33 p8 p64) (or (not p57) p9 (not p29)) (or p42 (not p0) (not p45)) (or p9 p14 (not p7)) (or p22 (not p25) p23) (or (not p23) (not p0) (not p55)) (or (not p28) p34 p53) (or (not p35) p66 (not p1)) (or (not p40) (not p66) (not p29)) (or p36 (not p10) (not p60)) (or p26 p39 (not p34)) (or (not p12) (not p25) p49) (or (not p11) p5 p19) (or (not p23) (not p49) p21) (or p47 p2 p69) (or p55 p59 p62) (or (not p42) (not p11) (not p2)) (or p2 (not p15) p8) (or (not p61) p63 p36) (or (not p57) p27 (not p32)) (or p0 p59 (not p11)) (or p28 p53 p7) (or (not p48) (not p62) p66) (or (not p7) (not p32) (not p21)) (or p59 p14 p42) (or p7 p17 p15) (or p67 (not p6) p52) (or p31 (not p20) p57) (or (not p6) p14 p47) (or (not p55) (not p21) (not p58)) (or (not p40) (not p9) p0) (or (not p60) (not p31) p10) (or p19 p55 p50) (or p30 (not p23) p10) (or p29 (not p48) p62) (or p46 (not p7) (not p53)) (or (not p59) p56 (not p28)) (or p39 p67 p12) (or (not p9) (not p58) p62) (or p59 (not p20) p5) (or p45 (not p39) (not p55)) (or (not p54) (not p6) (not p7)) (or (not p25) (not p54) p13) (or p1 (not p45) p23) (or (not p58) (not p52) p60) (or (not p13) (not p11) p1) (or p66 p11 p9) (or p49 (not p27) p17) (or p68 p11 (not p35)) (or p65 (not p4) (not p19)) (or p20 p40 (not p24)) (or (not p6) p45 p47) (or p12 (not p28) (not p10)) (or (not p64) p18 (not p36)) (or (not p25) (not p26) (not p15)) (or (not p11) p21 p38) (or p16 (not p22) (not p58)) (or (not p8) (not p30) p40) (or p8 (not p38) (not p8)) (or p6 p12 p52) (or (not p32) p56 (not p22)) (or p4 p57 p55) (or p27 (not p65) p33) (or (not p36) (not p33) p32) (or (not p1) (not p69) (not p0)) (or (not p6) (not p1) (not p2)) (or p25 (not p9) p31) (or (not p35) p31 p58) (or (not p27) p68 p34) (or (not p31) p27 p1) (or (not p52) p12 (not p68)) (or (not p59) p57 (not p61)) (or (not p51) (not p45) (not p46)) (or (not p42) p58 (not p23)) (or p6 p14 p55) (or p4 p19 p2) (or (not p27) p1 (not p11)) (or (not p42) (not p45) (not p56)) (or (not p61) (not p10) p11) (or (not p0) (not p44) p42) (or p34 (not p28) (not p13)) (or p36 p12 (not p2)) (or p12 (not p22) p39) (or (not p0) p10 (not p51)) (or (not p47) (not p6) p23) (or p37 p6 p35) (or p26 p32 (not p4)) (or (not p1) (not p23) (not p20)) (or p65 (not p13) p31) (or p36 p68 (not p40)) (or (not p15) p45 (not p1)) (or p17 p62 (not p22)) (or (not p56) p25 (not p51)) (or p17 p55 (not p31)) (or p7 (not p48) (not p6)) (or p69 (not p51) p5) (or (not p47) p26 p69) (or (not p26) p57 p65) (or (not p69) (not p23) (not p18)) (or (not p47) (not p43) (not p2)) (or (not p67) (not p16) p63) (or p1 p0 p63) (or p19 p63 p40) (or (not p56) (not p45) (not p22)) (or (not p35) p35 (not p57)) (or (not p34) p30 p60) (or p11 (not p37) p4) (or (not p28) p43 p25) (or (not p43) p28 p68) (or p19 (not p43) (not p26)) (or (not p7) p61 (not p54)) (or p62 (not p38) p41) (or (not p33) (not p17) (not p45)) (or (not p48) (not p55) (not p26)) (or p45 p33 p51) (or (not p42) p11 (not p5)) (or p10 p17 p26) (or p47 p18 p26) (or p27 (not p51) p6) (or (not p27) p30 p17) (or (not p24) (not p3) p49) (or (not p62) (not p29) (not p57)) (or (not p31) (not p55) p10) (or (not p33) p62 p5) (or (not p15) (not p32) p10) (or p44 (not p39) p19) (or (not p44) p69 (not p36)) (or p37 (not p54) p2) (or (not p2) p68 (not p29)) (or p18 p19 (not p66)) (or (not p22) (not p65) (not p20)) (or p46 p24 p27) (or (not p56) p11 (not p36)) (or p46 (not p2) p45) (or (not p22) (not p7) (not p43)) (or p23 (not p64) p45) (or p11 (not p53) (not p50)) (or p29 (not p65) p0) (or p1 p23 p48) (or (not p29) p12 p21) (or (not p18) p50 (not p53)) (or p59 (not p51) (not p48)) (or (not p52) p63 p24) (or p30 p56 p42) (or p21 p21 p12) (or (not p48) p34 (not p61)) (or p58 (not p34) p5) (or p2 p42 (not p23)) (or p44 p66 (not p45)) (or p49 (not p39) (not p68)) (or (not p60) p63 (not p42)) (or (not p38) (not p44) (not p27)) (or (not p50) (not p66) p14) (or p12 (not p68) (not p63)) (or p37 (not p10) (not p58)) (or (not p14) (not p7) p43) (or (not p52) (not p30) p53) (or (not p25) p30 (not p43)) (or p45 p55 p31) (or (not p43) (not p64) p47) (or (not p40) (not p67) (not p13)) (or (not p61) p15 p46) (or (not p67) p36 p37) (or p32 p9 p56) (or p48 p0 (not p58)) (or p30 (not p46) p16) (or (not p26) p36 p43) (or (not p64) p62 p25) (or p25 (not p27) p50) (or p42 (not p67) (not p69)) (or p5 p6 p64) (or p67 p42 p22) (or p4 p63 p39) (or p50 p16 (not p31)) (or p61 p10 p19) (or (not p65) (not p12) p15) (or p29 (not p30) (not p41)) (or p62 (not p22) p54) (or p6 p21 (not p41)) (or p57 (not p58) p29) (or (not p4) p14 p56) (or (not p19) (not p57) (not p40)) (or p44 p29 p17) (or p67 p43 p39) (or p34 p58 p21) (or (not p54) p63 (not p60)) (or (not p21) p4 p60) (or p59 p32 p60) (or p21 p29 p5) (or p54 (not p28) p43) (or (not p54) (not p29) (not p46)) (or (not p48) p22 (not p22)) (or (not p63) p59 p62) (or (not p36) p4 p43) (or (not p22) p0 p15) (or p2 p1 p36) (or p28 (not p65) p38) (or p10 p13 p37) (or (not p21) p41 (not p37)) (or p17 (not p23) (not p54)) (or p15 (not p7) (not p57)) (or p46 p60 (not p31)) (or (not p56) p48 p48) (or (not p19) (not p16) p32) (or p57 p9 p29) (or (not p4) (not p36) (not p12)) (or (not p1) p31 (not p48)) (or p33 (not p16) (not p1)) (or p49 (not p11) (not p56)) (or p37 (not p11) (not p47)) (or (not p14) (not p44) (not p36)) (or (not p8) (not p13) (not p26)) (or p7 p39 (not p61)) (or p26 p59 (not p61)) (or p55 (not p12) (not p38)) (or (not p38) p20 p11) (or p33 (not p39) (not p44)) (or (not p35) (not p42) (not p46)) (or p34 (not p54) p30) (or p42 p45 p69) (or (not p7) (not p22) p1) (or p53 (not p7) (not p46)) (or (not p42) p28 (not p20)) (or p14 p35 (not p65)) (or p51 p69 p59) (or (not p62) (not p28) (not p2)) (or p44 p41 p29) (or p57 p41 p15) (or p25 p59 p53) (or (not p68) p10 p34) (or (not p19) (not p60) p54) (or p53 (not p68) p48) (or (not p11) p66 (not p7)) (or p27 p3 (not p8)) (or p8 (not p41) p62) (or p54 p20 (not p67)) (or (not p33) p19 (not p39)) (or p7 (not p8) p21) (or p9 p20 (not p0)) (or p52 (not p67) (not p27)) (or (not p49) p37 (not p6)) (or p3 p39 p2) (or (not p52) p11 (not p68)) (or (not p57) (not p35) p24) (or (not p67) p66 (not p42)) (or p5 (not p57) (not p61)) (or (not p45) p31 p13) (or (not p69) p13 p18) (or (not p8) (not p36) (not p55)) (or p58 (not p12) (not p37)))
)
(check-sat)
(get-model)
